50
12144

308 551
594 6
710 942
46 840
399 767
920 433
242 857
732 501
145 544
409 617
81 141
176 617
48 836
883 389
366 219
277 520
367 139
179 254
24 93
155 116
136 168
628 739
419 590
775 438
578 312
772 955
770 197
32 31
227 867
532 688
23 747
284 631
752 805
504 439
143 726
708 966
98 846
126 372
979 586
18 609
16 858
678 197
530 227
84 508
427 449
520 655
12 390
428 202
531 893
294 218
